/*********************************************
 * OPL 22.1.1.0 Data
 * Author: duongphuonggiang
 * Creation Date: Mar 7, 2024 at 12:48:07 AM
 *********************************************/
N=5;
c=  [
	[99, 7, 8, 5, 3],
 	[ 7,99, 2, 9,10],
	[ 8, 2,99, 6, 9],
 	[ 5, 9, 6,99, 4],
 	[ 3,10, 9, 4,99]];
